StringID   Type       x          y          demand     ReadyTime  DueDate    ServiceTime
D0         d              43.184    94.252      0.000      0.000     23.983      0.000
S0         f              43.184    94.252      0.000      0.000     23.983      0.000
S1         f              80.920    54.750      0.000      0.000     23.983      0.000
S2         f              82.290    54.890      0.000      0.000     23.983      0.000
C0         c              80.954    42.508      0.004     19.576     20.135      0.050
C1         c              79.993    41.327      0.008     12.909     13.454      0.050
C2         c              25.962    98.823      0.002     11.050     11.563      0.083
C3         c              48.907    39.618      0.054      9.649     10.178      0.083
C4         c              58.500    38.613      0.003     11.671     12.149      0.017

Q Vehicle fuel tank capacity /108.6900/
C Vehicle load capacity /1.1700/
r fuel consumption rate /0.4311/
g inverse refueling rate /0.0069/
v average Velocity /33.7100/
gv charging speed /144.6600/

--------------------
instance_id /891/
number of clusters /7/
working_startTime (hour) /8.00/
working_endTime (hour) /20.65/
instance_endTime (hour) /23.98/
service_time_type /random/
demand_type /20_80/
instance_type /C/
instance x range /[0.0, 100.0]/
instance y range /[0.0, 100.0]/
cs_time_to_depot (hour)/[1.6205810638399247,1.645967077751949]/
